p cnf 10 50
8 4 -2 0
-6 7 -5 0
8 6 -3 0
-2 -1 10 0
-7 -10 4 0
2 -4 9 0
-2 -1 6 0
-5 -9 -1 0
-10 -7 4 0
7 1 3 0
-5 -9 -8 0
-2 7 8 0
1 -10 3 0
-9 5 -6 0
-10 6 3 0
-9 -5 4 0
-10 3 -9 0
10 -8 -7 0
8 -3 -5 0
7 5 -4 0
1 -9 -4 0
-4 6 -2 0
-3 9 5 0
-5 -1 -6 0
-1 9 3 0
-4 -6 -5 0
-8 -1 -9 0
9 -10 -4 0
9 -3 -5 0
-4 -5 10 0
-6 4 -2 0
8 -7 -3 0
-7 -5 9 0
5 2 -1 0
10 5 4 0
9 -4 5 0
6 -1 -7 0
6 5 -9 0
-4 -5 -10 0
-5 -2 4 0
-2 5 -3 0
-3 6 5 0
9 10 2 0
2 -4 -3 0
6 2 1 0
6 4 3 0
1 -9 -3 0
-5 -9 3 0
-5 1 -3 0
2 -9 -10 0